Code 2734
Dimension, Median 
   128       16     
 Facility, Client, Transportation Cost
     1        1           3
     1        2           4
     1        3           1
     1        5           4
     1        9           1
     1       17           0
     1       33           0
     1       65           1
     2        1           3
     2        2           4
     2        4           4
     2        6           2
     2       10           4
     2       18           1
     2       34           0
     2       66           2
     3        1           1
     3        3           2
     3        4           3
     3        7           3
     3       11           3
     3       19           1
     3       35           2
     3       67           4
     4        2           4
     4        3           0
     4        4           2
     4        8           2
     4       12           2
     4       20           3
     4       36           1
     4       68           2
     5        1           2
     5        5           0
     5        6           4
     5        7           0
     5       13           4
     5       21           0
     5       37           4
     5       69           4
     6        2           4
     6        5           0
     6        6           3
     6        8           4
     6       14           2
     6       22           1
     6       38           4
     6       70           2
     7        3           4
     7        5           1
     7        7           4
     7        8           0
     7       15           3
     7       23           1
     7       39           3
     7       71           2
     8        4           2
     8        6           2
     8        7           1
     8        8           0
     8       16           1
     8       24           4
     8       40           0
     8       72           3
     9        1           1
     9        9           2
     9       10           0
     9       11           4
     9       13           3
     9       25           4
     9       41           2
     9       73           1
    10        2           1
    10        9           4
    10       10           0
    10       12           0
    10       14           0
    10       26           2
    10       42           4
    10       74           0
    11        3           4
    11        9           0
    11       11           2
    11       12           2
    11       15           1
    11       27           2
    11       43           0
    11       75           3
    12        4           0
    12       10           2
    12       11           2
    12       12           2
    12       16           1
    12       28           1
    12       44           1
    12       76           3
    13        5           4
    13        9           2
    13       13           4
    13       14           4
    13       15           1
    13       29           2
    13       45           2
    13       77           2
    14        6           0
    14       10           1
    14       13           2
    14       14           1
    14       16           3
    14       30           0
    14       46           0
    14       78           0
    15        7           3
    15       11           0
    15       13           2
    15       15           3
    15       16           2
    15       31           3
    15       47           3
    15       79           1
    16        8           4
    16       12           0
    16       14           3
    16       15           3
    16       16           3
    16       32           0
    16       48           2
    16       80           2
    17        1           4
    17       17           2
    17       18           1
    17       19           2
    17       21           1
    17       25           0
    17       49           4
    17       81           1
    18        2           0
    18       17           0
    18       18           3
    18       20           3
    18       22           2
    18       26           1
    18       50           4
    18       82           1
    19        3           2
    19       17           2
    19       19           4
    19       20           3
    19       23           4
    19       27           3
    19       51           3
    19       83           4
    20        4           0
    20       18           2
    20       19           4
    20       20           3
    20       24           4
    20       28           1
    20       52           0
    20       84           1
    21        5           4
    21       17           2
    21       21           4
    21       22           4
    21       23           2
    21       29           3
    21       53           2
    21       85           4
    22        6           2
    22       18           0
    22       21           3
    22       22           4
    22       24           2
    22       30           4
    22       54           0
    22       86           0
    23        7           1
    23       19           1
    23       21           1
    23       23           2
    23       24           2
    23       31           4
    23       55           3
    23       87           3
    24        8           4
    24       20           0
    24       22           0
    24       23           2
    24       24           2
    24       32           4
    24       56           0
    24       88           3
    25        9           3
    25       17           1
    25       25           3
    25       26           2
    25       27           0
    25       29           4
    25       57           3
    25       89           0
    26       10           4
    26       18           0
    26       25           3
    26       26           3
    26       28           4
    26       30           3
    26       58           1
    26       90           0
    27       11           1
    27       19           1
    27       25           1
    27       27           3
    27       28           0
    27       31           4
    27       59           2
    27       91           2
    28       12           1
    28       20           3
    28       26           0
    28       27           2
    28       28           2
    28       32           3
    28       60           1
    28       92           1
    29       13           2
    29       21           2
    29       25           4
    29       29           2
    29       30           0
    29       31           3
    29       61           0
    29       93           0
    30       14           1
    30       22           0
    30       26           3
    30       29           2
    30       30           4
    30       32           2
    30       62           3
    30       94           4
    31       15           1
    31       23           4
    31       27           4
    31       29           3
    31       31           2
    31       32           3
    31       63           4
    31       95           0
    32       16           2
    32       24           1
    32       28           2
    32       30           1
    32       31           3
    32       32           0
    32       64           1
    32       96           3
    33        1           0
    33       33           3
    33       34           3
    33       35           0
    33       37           1
    33       41           2
    33       49           3
    33       97           4
    34        2           2
    34       33           0
    34       34           1
    34       36           2
    34       38           3
    34       42           3
    34       50           3
    34       98           1
    35        3           2
    35       33           2
    35       35           3
    35       36           2
    35       39           2
    35       43           3
    35       51           1
    35       99           1
    36        4           2
    36       34           0
    36       35           3
    36       36           0
    36       40           1
    36       44           4
    36       52           1
    36      100           3
    37        5           4
    37       33           4
    37       37           0
    37       38           3
    37       39           1
    37       45           2
    37       53           4
    37      101           0
    38        6           1
    38       34           2
    38       37           2
    38       38           0
    38       40           2
    38       46           1
    38       54           0
    38      102           4
    39        7           3
    39       35           4
    39       37           2
    39       39           3
    39       40           2
    39       47           2
    39       55           2
    39      103           4
    40        8           1
    40       36           3
    40       38           4
    40       39           0
    40       40           0
    40       48           0
    40       56           1
    40      104           0
    41        9           0
    41       33           4
    41       41           1
    41       42           2
    41       43           4
    41       45           1
    41       57           4
    41      105           2
    42       10           1
    42       34           4
    42       41           2
    42       42           4
    42       44           3
    42       46           3
    42       58           4
    42      106           1
    43       11           4
    43       35           0
    43       41           1
    43       43           3
    43       44           4
    43       47           2
    43       59           3
    43      107           3
    44       12           4
    44       36           4
    44       42           2
    44       43           4
    44       44           1
    44       48           0
    44       60           2
    44      108           2
    45       13           1
    45       37           3
    45       41           4
    45       45           2
    45       46           1
    45       47           2
    45       61           2
    45      109           4
    46       14           0
    46       38           1
    46       42           2
    46       45           2
    46       46           3
    46       48           0
    46       62           2
    46      110           4
    47       15           4
    47       39           1
    47       43           2
    47       45           0
    47       47           0
    47       48           3
    47       63           0
    47      111           3
    48       16           4
    48       40           2
    48       44           0
    48       46           2
    48       47           4
    48       48           4
    48       64           4
    48      112           0
    49       17           4
    49       33           1
    49       49           2
    49       50           4
    49       51           3
    49       53           1
    49       57           4
    49      113           0
    50       18           2
    50       34           0
    50       49           2
    50       50           3
    50       52           1
    50       54           3
    50       58           4
    50      114           1
    51       19           2
    51       35           2
    51       49           3
    51       51           4
    51       52           0
    51       55           0
    51       59           0
    51      115           3
    52       20           2
    52       36           1
    52       50           3
    52       51           0
    52       52           2
    52       56           0
    52       60           0
    52      116           3
    53       21           3
    53       37           1
    53       49           1
    53       53           4
    53       54           3
    53       55           1
    53       61           4
    53      117           0
    54       22           0
    54       38           1
    54       50           3
    54       53           2
    54       54           3
    54       56           4
    54       62           2
    54      118           1
    55       23           0
    55       39           0
    55       51           1
    55       53           4
    55       55           0
    55       56           4
    55       63           1
    55      119           0
    56       24           1
    56       40           2
    56       52           3
    56       54           0
    56       55           1
    56       56           4
    56       64           1
    56      120           1
    57       25           2
    57       41           2
    57       49           4
    57       57           2
    57       58           4
    57       59           2
    57       61           0
    57      121           4
    58       26           0
    58       42           4
    58       50           4
    58       57           0
    58       58           4
    58       60           1
    58       62           4
    58      122           2
    59       27           0
    59       43           1
    59       51           1
    59       57           0
    59       59           3
    59       60           0
    59       63           4
    59      123           3
    60       28           4
    60       44           1
    60       52           2
    60       58           3
    60       59           2
    60       60           2
    60       64           4
    60      124           3
    61       29           4
    61       45           2
    61       53           0
    61       57           4
    61       61           0
    61       62           4
    61       63           2
    61      125           3
    62       30           1
    62       46           4
    62       54           1
    62       58           4
    62       61           1
    62       62           2
    62       64           0
    62      126           2
    63       31           1
    63       47           3
    63       55           3
    63       59           4
    63       61           3
    63       63           4
    63       64           2
    63      127           3
    64       32           1
    64       48           1
    64       56           2
    64       60           3
    64       62           3
    64       63           0
    64       64           1
    64      128           2
    65        1           2
    65       65           4
    65       66           4
    65       67           1
    65       69           2
    65       73           0
    65       81           1
    65       97           0
    66        2           4
    66       65           3
    66       66           2
    66       68           4
    66       70           3
    66       74           2
    66       82           1
    66       98           1
    67        3           0
    67       65           3
    67       67           2
    67       68           3
    67       71           1
    67       75           1
    67       83           3
    67       99           3
    68        4           0
    68       66           2
    68       67           3
    68       68           3
    68       72           2
    68       76           2
    68       84           1
    68      100           3
    69        5           0
    69       65           1
    69       69           4
    69       70           0
    69       71           3
    69       77           0
    69       85           1
    69      101           0
    70        6           2
    70       66           1
    70       69           3
    70       70           3
    70       72           2
    70       78           1
    70       86           2
    70      102           3
    71        7           2
    71       67           0
    71       69           4
    71       71           4
    71       72           0
    71       79           4
    71       87           2
    71      103           2
    72        8           3
    72       68           0
    72       70           4
    72       71           2
    72       72           4
    72       80           2
    72       88           1
    72      104           1
    73        9           4
    73       65           0
    73       73           3
    73       74           4
    73       75           3
    73       77           3
    73       89           4
    73      105           0
    74       10           1
    74       66           0
    74       73           0
    74       74           1
    74       76           0
    74       78           1
    74       90           4
    74      106           2
    75       11           1
    75       67           2
    75       73           4
    75       75           0
    75       76           4
    75       79           2
    75       91           1
    75      107           2
    76       12           4
    76       68           1
    76       74           0
    76       75           1
    76       76           3
    76       80           0
    76       92           2
    76      108           4
    77       13           4
    77       69           3
    77       73           3
    77       77           3
    77       78           2
    77       79           1
    77       93           2
    77      109           4
    78       14           3
    78       70           3
    78       74           2
    78       77           1
    78       78           2
    78       80           0
    78       94           4
    78      110           0
    79       15           4
    79       71           4
    79       75           1
    79       77           0
    79       79           0
    79       80           1
    79       95           1
    79      111           2
    80       16           0
    80       72           0
    80       76           2
    80       78           0
    80       79           3
    80       80           0
    80       96           1
    80      112           3
    81       17           4
    81       65           0
    81       81           0
    81       82           3
    81       83           0
    81       85           1
    81       89           4
    81      113           3
    82       18           3
    82       66           4
    82       81           2
    82       82           3
    82       84           0
    82       86           4
    82       90           3
    82      114           0
    83       19           3
    83       67           0
    83       81           2
    83       83           0
    83       84           3
    83       87           3
    83       91           1
    83      115           2
    84       20           3
    84       68           0
    84       82           3
    84       83           0
    84       84           0
    84       88           1
    84       92           4
    84      116           4
    85       21           3
    85       69           1
    85       81           3
    85       85           3
    85       86           1
    85       87           0
    85       93           3
    85      117           3
    86       22           3
    86       70           3
    86       82           3
    86       85           2
    86       86           2
    86       88           0
    86       94           4
    86      118           2
    87       23           4
    87       71           1
    87       83           0
    87       85           3
    87       87           1
    87       88           4
    87       95           0
    87      119           0
    88       24           0
    88       72           3
    88       84           3
    88       86           3
    88       87           3
    88       88           4
    88       96           0
    88      120           3
    89       25           1
    89       73           3
    89       81           3
    89       89           0
    89       90           3
    89       91           2
    89       93           4
    89      121           3
    90       26           3
    90       74           1
    90       82           3
    90       89           0
    90       90           2
    90       92           0
    90       94           4
    90      122           0
    91       27           0
    91       75           1
    91       83           2
    91       89           2
    91       91           1
    91       92           0
    91       95           1
    91      123           0
    92       28           4
    92       76           1
    92       84           4
    92       90           3
    92       91           1
    92       92           2
    92       96           0
    92      124           3
    93       29           2
    93       77           3
    93       85           2
    93       89           4
    93       93           3
    93       94           2
    93       95           2
    93      125           0
    94       30           4
    94       78           3
    94       86           1
    94       90           3
    94       93           1
    94       94           2
    94       96           3
    94      126           2
    95       31           1
    95       79           0
    95       87           3
    95       91           2
    95       93           4
    95       95           2
    95       96           3
    95      127           0
    96       32           1
    96       80           4
    96       88           3
    96       92           3
    96       94           0
    96       95           1
    96       96           4
    96      128           4
    97       33           0
    97       65           2
    97       97           4
    97       98           4
    97       99           0
    97      101           0
    97      105           0
    97      113           1
    98       34           1
    98       66           2
    98       97           4
    98       98           4
    98      100           4
    98      102           4
    98      106           1
    98      114           1
    99       35           0
    99       67           0
    99       97           1
    99       99           3
    99      100           4
    99      103           1
    99      107           3
    99      115           1
   100       36           2
   100       68           1
   100       98           1
   100       99           1
   100      100           1
   100      104           0
   100      108           3
   100      116           4
   101       37           3
   101       69           4
   101       97           4
   101      101           4
   101      102           4
   101      103           2
   101      109           4
   101      117           4
   102       38           0
   102       70           4
   102       98           0
   102      101           1
   102      102           3
   102      104           1
   102      110           4
   102      118           3
   103       39           1
   103       71           1
   103       99           3
   103      101           0
   103      103           0
   103      104           0
   103      111           3
   103      119           0
   104       40           3
   104       72           3
   104      100           4
   104      102           4
   104      103           3
   104      104           0
   104      112           4
   104      120           2
   105       41           4
   105       73           3
   105       97           4
   105      105           3
   105      106           0
   105      107           2
   105      109           0
   105      121           4
   106       42           4
   106       74           1
   106       98           3
   106      105           4
   106      106           3
   106      108           2
   106      110           0
   106      122           0
   107       43           1
   107       75           1
   107       99           4
   107      105           0
   107      107           1
   107      108           0
   107      111           4
   107      123           3
   108       44           1
   108       76           3
   108      100           4
   108      106           1
   108      107           3
   108      108           0
   108      112           0
   108      124           0
   109       45           2
   109       77           1
   109      101           3
   109      105           4
   109      109           0
   109      110           2
   109      111           4
   109      125           3
   110       46           4
   110       78           2
   110      102           1
   110      106           2
   110      109           1
   110      110           0
   110      112           1
   110      126           4
   111       47           4
   111       79           1
   111      103           2
   111      107           0
   111      109           3
   111      111           2
   111      112           4
   111      127           1
   112       48           1
   112       80           2
   112      104           1
   112      108           4
   112      110           2
   112      111           1
   112      112           0
   112      128           0
   113       49           4
   113       81           3
   113       97           2
   113      113           3
   113      114           1
   113      115           0
   113      117           3
   113      121           1
   114       50           3
   114       82           1
   114       98           4
   114      113           0
   114      114           3
   114      116           1
   114      118           4
   114      122           3
   115       51           2
   115       83           2
   115       99           3
   115      113           2
   115      115           4
   115      116           2
   115      119           2
   115      123           4
   116       52           3
   116       84           2
   116      100           2
   116      114           4
   116      115           4
   116      116           1
   116      120           0
   116      124           4
   117       53           3
   117       85           0
   117      101           2
   117      113           1
   117      117           2
   117      118           4
   117      119           2
   117      125           3
   118       54           2
   118       86           0
   118      102           0
   118      114           0
   118      117           0
   118      118           4
   118      120           1
   118      126           0
   119       55           3
   119       87           3
   119      103           4
   119      115           1
   119      117           1
   119      119           4
   119      120           0
   119      127           1
   120       56           4
   120       88           2
   120      104           0
   120      116           0
   120      118           3
   120      119           4
   120      120           2
   120      128           1
   121       57           2
   121       89           0
   121      105           2
   121      113           3
   121      121           4
   121      122           3
   121      123           0
   121      125           2
   122       58           3
   122       90           0
   122      106           3
   122      114           3
   122      121           4
   122      122           2
   122      124           1
   122      126           1
   123       59           4
   123       91           1
   123      107           2
   123      115           4
   123      121           3
   123      123           3
   123      124           1
   123      127           1
   124       60           1
   124       92           4
   124      108           3
   124      116           0
   124      122           4
   124      123           2
   124      124           3
   124      128           4
   125       61           1
   125       93           4
   125      109           2
   125      117           2
   125      121           1
   125      125           3
   125      126           4
   125      127           3
   126       62           1
   126       94           1
   126      110           2
   126      118           2
   126      122           3
   126      125           2
   126      126           3
   126      128           3
   127       63           2
   127       95           0
   127      111           2
   127      119           4
   127      123           1
   127      125           2
   127      127           1
   127      128           2
   128       64           2
   128       96           4
   128      112           0
   128      120           3
   128      124           4
   128      126           2
   128      127           4
   128      128           0
